Route #1: 31 46 35
Route #2: 52 91 50
Route #3: 66 84 90 68
Route #4: 74 13 4
Route #5: 34 64 96 48 26 47 38
Route #6: 58 12 5
Route #7: 63 77 3
Route #8: 71 62 99 98 89
Route #9: 93 75
Route #10: 27 97 19
Route #11: 80 94 56 21
Route #12: 24 95 73 53 33 32
Route #13: 17 8
Route #14: 92 9 86
Route #15: 39 10 18
Route #16: 7 2 45 43 29 36 72 57
Route #17: 1 70 54
Route #18: 69 16 55 76
Route #19: 40 88 67 44
Route #20: 30 85 11 79
Route #21: 20 41 22 15
Route #22: 14 49 6 37 87
Route #23: 81 51 83
Route #24: 25 65 78 42 28
Route #25: 82 60 59
Route #26: 23 61 100
Cost 27591.0000
Time 16.0001